NAME: tsp30_14
COMMENT: 30-tsp problem (Padberg/Rinaldi)
TYPE: TSP
DIMENSION: 30
EDGE_WEIGHT_TYPE : EUC_2D
NODE_COORD_SECTION
1 7 15
2 27 9
3 40 25
4 28 10
5 21 14
6 16 27
7 10 3
8 6 1
9 37 39
10 8 37
11 25 19
12 20 0
13 25 33
14 23 15
15 23 3
16 27 4
17 23 20
18 29 27
19 10 13
20 25 20
21 9 9
22 30 30
23 22 19
24 40 14
25 19 9
26 26 6
27 29 6
28 19 22
29 5 16
30 24 1
